0.80, 0.65
0.65, 0.62
0.50, 0.59
0.35, 0.56
0.20, 0.53
0.15, 0.49
0.30, 0.46
0.45, 0.43
0.60, 0.40
0.75, 0.37
0.90, 0.34
0.75, 0.30
0.60, 0.27
0.45, 0.24
0.30, 0.21
0.15, 0.18
0.20, 0.15
0.35, 0.12
0.50, 0.09
0.65, 0.06
0.80, 0.03
0.65, 0.01
0.50, 0.04
0.35, 0.07
0.20, 0.10
0.05, 0.13
0.20, 0.16
0.35, 0.19
0.50, 0.22
0.65, 0.25
0.80, 0.28
